NAME : eil101.tsp
COMMENT : Optimal tour for eil101.tsp
TYPE : TOUR
DIMENSION : 101
Total Length: 687.651239715857
TOUR_SECTION
1
69
52
18
83
60
5
61
91
100
37
98
85
93
99
96
89
6
94
13
95
59
92
97
87
2
41
15
43
57
42
14
44
38
86
16
84
17
45
8
46
36
49
64
63
90
32
10
62
11
19
47
48
82
7
88
31
70
30
20
66
65
71
35
9
51
33
81
34
78
79
3
77
76
28
26
12
54
80
68
29
24
55
25
4
39
67
23
56
75
22
74
72
73
21
40
58
53
101
27
50
-1
EOF
